c nIsolatedPIs 0
c maxPI 32
p cnf 227 586
c gate 33 10 -26 0
10 -33 0
-26 -33 0
-10 26 33 0
c gate 34 9 -25 0
9 -34 0
-25 -34 0
-9 25 34 0
c gate 35 -9 25 0
-9 -35 0
25 -35 0
9 -25 35 0
c gate 36 8 -24 0
8 -36 0
-24 -36 0
-8 24 36 0
c gate 37 -8 -24 0
-8 -37 0
-24 -37 0
8 24 37 0
c gate 38 8 24 0
8 -38 0
24 -38 0
-8 -24 38 0
c gate 39 -37 -38 0
-37 -39 0
-38 -39 0
37 38 39 0
c gate 40 -7 23 0
-7 -40 0
23 -40 0
7 -23 40 0
c gate 41 6 -22 0
6 -41 0
-22 -41 0
-6 22 41 0
c gate 42 -7 -23 0
-7 -42 0
-23 -42 0
7 23 42 0
c gate 43 7 23 0
7 -43 0
23 -43 0
-7 -23 43 0
c gate 44 -42 -43 0
-42 -44 0
-43 -44 0
42 43 44 0
c gate 45 -41 -44 0
-41 -45 0
-44 -45 0
41 44 45 0
c gate 46 -2 18 0
-2 -46 0
18 -46 0
2 -18 46 0
c gate 47 -1 17 0
-1 -47 0
17 -47 0
1 -17 47 0
c gate 48 -46 -47 0
-46 -48 0
-47 -48 0
46 47 48 0
c gate 49 2 -18 0
2 -49 0
-18 -49 0
-2 18 49 0
c gate 50 3 -19 0
3 -50 0
-19 -50 0
-3 19 50 0
c gate 51 -49 -50 0
-49 -51 0
-50 -51 0
49 50 51 0
c gate 52 -48 51 0
-48 -52 0
51 -52 0
48 -51 52 0
c gate 53 -4 20 0
-4 -53 0
20 -53 0
4 -20 53 0
c gate 54 -3 19 0
-3 -54 0
19 -54 0
3 -19 54 0
c gate 55 -53 -54 0
-53 -55 0
-54 -55 0
53 54 55 0
c gate 56 -52 55 0
-52 -56 0
55 -56 0
52 -55 56 0
c gate 57 5 -21 0
5 -57 0
-21 -57 0
-5 21 57 0
c gate 58 4 -20 0
4 -58 0
-20 -58 0
-4 20 58 0
c gate 59 -57 -58 0
-57 -59 0
-58 -59 0
57 58 59 0
c gate 60 -56 59 0
-56 -60 0
59 -60 0
56 -59 60 0
c gate 61 -6 -22 0
-6 -61 0
-22 -61 0
6 22 61 0
c gate 62 6 22 0
6 -62 0
22 -62 0
-6 -22 62 0
c gate 63 -61 -62 0
-61 -63 0
-62 -63 0
61 62 63 0
c gate 64 -5 21 0
-5 -64 0
21 -64 0
5 -21 64 0
c gate 65 -63 -64 0
-63 -65 0
-64 -65 0
63 64 65 0
c gate 66 -60 65 0
-60 -66 0
65 -66 0
60 -65 66 0
c gate 67 45 -66 0
45 -67 0
-66 -67 0
-45 66 67 0
c gate 68 -40 -67 0
-40 -68 0
-67 -68 0
40 67 68 0
c gate 69 -39 68 0
-39 -69 0
68 -69 0
39 -68 69 0
c gate 70 -36 -69 0
-36 -70 0
-69 -70 0
36 69 70 0
c gate 71 -35 -70 0
-35 -71 0
-70 -71 0
35 70 71 0
c gate 72 -34 -71 0
-34 -72 0
-71 -72 0
34 71 72 0
c gate 73 -10 -26 0
-10 -73 0
-26 -73 0
10 26 73 0
c gate 74 10 26 0
10 -74 0
26 -74 0
-10 -26 74 0
c gate 75 -73 -74 0
-73 -75 0
-74 -75 0
73 74 75 0
c gate 76 -72 -75 0
-72 -76 0
-75 -76 0
72 75 76 0
c gate 77 -33 -76 0
-33 -77 0
-76 -77 0
33 76 77 0
c gate 78 -11 -27 0
-11 -78 0
-27 -78 0
11 27 78 0
c gate 79 11 27 0
11 -79 0
27 -79 0
-11 -27 79 0
c gate 80 -78 -79 0
-78 -80 0
-79 -80 0
78 79 80 0
c gate 81 77 -80 0
77 -81 0
-80 -81 0
-77 80 81 0
c gate 82 -14 -30 0
-14 -82 0
-30 -82 0
14 30 82 0
c gate 83 14 30 0
14 -83 0
30 -83 0
-14 -30 83 0
c gate 84 -82 -83 0
-82 -84 0
-83 -84 0
82 83 84 0
c gate 85 16 32 0
16 -85 0
32 -85 0
-16 -32 85 0
c gate 86 -16 -32 0
-16 -86 0
-32 -86 0
16 32 86 0
c gate 87 -85 -86 0
-85 -87 0
-86 -87 0
85 86 87 0
c gate 88 -84 -87 0
-84 -88 0
-87 -88 0
84 87 88 0
c gate 89 -13 -29 0
-13 -89 0
-29 -89 0
13 29 89 0
c gate 90 13 29 0
13 -90 0
29 -90 0
-13 -29 90 0
c gate 91 -89 -90 0
-89 -91 0
-90 -91 0
89 90 91 0
c gate 92 12 28 0
12 -92 0
28 -92 0
-12 -28 92 0
c gate 93 -12 -28 0
-12 -93 0
-28 -93 0
12 28 93 0
c gate 94 -92 -93 0
-92 -94 0
-93 -94 0
92 93 94 0
c gate 95 -15 -31 0
-15 -95 0
-31 -95 0
15 31 95 0
c gate 96 15 31 0
15 -96 0
31 -96 0
-15 -31 96 0
c gate 97 -95 -96 0
-95 -97 0
-96 -97 0
95 96 97 0
c gate 98 -94 -97 0
-94 -98 0
-97 -98 0
94 97 98 0
c gate 99 -91 98 0
-91 -99 0
98 -99 0
91 -98 99 0
c gate 100 88 99 0
88 -100 0
99 -100 0
-88 -99 100 0
c gate 101 81 100 0
81 -101 0
100 -101 0
-81 -100 101 0
c gate 102 -77 80 0
-77 -102 0
80 -102 0
77 -80 102 0
c gate 103 -81 -102 0
-81 -103 0
-102 -103 0
81 102 103 0
c gate 104 -34 -36 0
-34 -104 0
-36 -104 0
34 36 104 0
c gate 105 -75 -104 0
-75 -105 0
-104 -105 0
75 104 105 0
c gate 106 -33 -105 0
-33 -106 0
-105 -106 0
33 105 106 0
c gate 107 80 -106 0
80 -107 0
-106 -107 0
-80 106 107 0
c gate 108 -103 -107 0
-103 -108 0
-107 -108 0
103 107 108 0
c gate 109 75 104 0
75 -109 0
104 -109 0
-75 -104 109 0
c gate 110 -105 -109 0
-105 -110 0
-109 -110 0
105 109 110 0
c gate 111 72 75 0
72 -111 0
75 -111 0
-72 -75 111 0
c gate 112 -76 -111 0
-76 -112 0
-111 -112 0
76 111 112 0
c gate 113 110 -112 0
110 -113 0
-112 -113 0
-110 112 113 0
c gate 114 -110 112 0
-110 -114 0
112 -114 0
110 -112 114 0
c gate 115 -5 -21 0
-5 -115 0
-21 -115 0
5 21 115 0
c gate 116 -4 -20 0
-4 -116 0
-20 -116 0
4 20 116 0
c gate 117 -115 -116 0
-115 -117 0
-116 -117 0
115 116 117 0
c gate 118 1 17 0
1 -118 0
17 -118 0
-1 -17 118 0
c gate 119 2 18 0
2 -119 0
18 -119 0
-2 -18 119 0
c gate 120 -118 -119 0
-118 -120 0
-119 -120 0
118 119 120 0
c gate 121 -50 -54 0
-50 -121 0
-54 -121 0
50 54 121 0
c gate 122 -2 -18 0
-2 -122 0
-18 -122 0
2 18 122 0
c gate 123 -121 -122 0
-121 -123 0
-122 -123 0
121 122 123 0
c gate 124 -120 123 0
-120 -124 0
123 -124 0
120 -123 124 0
c gate 125 3 19 0
3 -125 0
19 -125 0
-3 -19 125 0
c gate 126 4 20 0
4 -126 0
20 -126 0
-4 -20 126 0
c gate 127 -125 -126 0
-125 -127 0
-126 -127 0
125 126 127 0
c gate 128 -124 127 0
-124 -128 0
127 -128 0
124 -127 128 0
c gate 129 117 -128 0
117 -129 0
-128 -129 0
-117 128 129 0
c gate 130 5 21 0
5 -130 0
21 -130 0
-5 -21 130 0
c gate 131 63 -130 0
63 -131 0
-130 -131 0
-63 130 131 0
c gate 132 -129 131 0
-129 -132 0
131 -132 0
129 -131 132 0
c gate 133 -61 -132 0
-61 -133 0
-132 -133 0
61 132 133 0
c gate 134 44 -133 0
44 -134 0
-133 -134 0
-44 133 134 0
c gate 135 39 134 0
39 -135 0
134 -135 0
-39 -134 135 0
c gate 136 -132 -134 0
-132 -136 0
-134 -136 0
132 134 136 0
c gate 137 118 119 0
118 -137 0
119 -137 0
-118 -119 137 0
c gate 138 136 137 0
136 -138 0
137 -138 0
-136 -137 138 0
c gate 139 -135 -138 0
-135 -139 0
-138 -139 0
135 138 139 0
c gate 140 -78 94 0
-78 -140 0
94 -140 0
78 -94 140 0
c gate 141 9 25 0
9 -141 0
25 -141 0
-9 -25 141 0
c gate 142 -38 -141 0
-38 -142 0
-141 -142 0
38 141 142 0
c gate 143 -37 -42 0
-37 -143 0
-42 -143 0
37 42 143 0
c gate 144 -134 143 0
-134 -144 0
143 -144 0
134 -143 144 0
c gate 145 142 -144 0
142 -145 0
-144 -145 0
-142 144 145 0
c gate 146 -9 -25 0
-9 -146 0
-25 -146 0
9 25 146 0
c gate 147 -73 -146 0
-73 -147 0
-146 -147 0
73 146 147 0
c gate 148 -145 147 0
-145 -148 0
147 -148 0
145 -147 148 0
c gate 149 -74 -79 0
-74 -149 0
-79 -149 0
74 79 149 0
c gate 150 -148 149 0
-148 -150 0
149 -150 0
148 -149 150 0
c gate 151 140 -150 0
140 -151 0
-150 -151 0
-140 150 151 0
c gate 152 -92 -151 0
-92 -152 0
-151 -152 0
92 151 152 0
c gate 153 -91 -152 0
-91 -153 0
-152 -153 0
91 152 153 0
c gate 154 -151 -153 0
-151 -154 0
-153 -154 0
151 153 154 0
c gate 155 139 154 0
139 -155 0
154 -155 0
-139 -154 155 0
c gate 156 142 -143 0
142 -156 0
-143 -156 0
-142 143 156 0
c gate 157 140 147 0
140 -157 0
147 -157 0
-140 -147 157 0
c gate 158 -156 157 0
-156 -158 0
157 -158 0
156 -157 158 0
c gate 159 150 158 0
150 -159 0
158 -159 0
-150 -158 159 0
c gate 160 135 -159 0
135 -160 0
-159 -160 0
-135 159 160 0
c gate 161 154 -160 0
154 -161 0
-160 -161 0
-154 160 161 0
c gate 162 -89 -152 0
-89 -162 0
-152 -162 0
89 152 162 0
c gate 163 -90 -162 0
-90 -163 0
-162 -163 0
90 162 163 0
c gate 164 84 163 0
84 -164 0
163 -164 0
-84 -163 164 0
c gate 165 -82 -164 0
-82 -165 0
-164 -165 0
82 164 165 0
c gate 166 -96 -165 0
-96 -166 0
-165 -166 0
96 165 166 0
c gate 167 -95 -166 0
-95 -167 0
-166 -167 0
95 166 167 0
c gate 168 87 -167 0
87 -168 0
-167 -168 0
-87 167 168 0
c gate 169 -87 167 0
-87 -169 0
167 -169 0
87 -167 169 0
c gate 170 -168 -169 0
-168 -170 0
-169 -170 0
168 169 170 0
c gate 171 -90 -92 0
-90 -171 0
-92 -171 0
90 92 171 0
c gate 172 84 171 0
84 -172 0
171 -172 0
-84 -171 172 0
c gate 173 -84 -171 0
-84 -173 0
-171 -173 0
84 171 173 0
c gate 174 -172 -173 0
-172 -174 0
-173 -174 0
172 173 174 0
c gate 175 -84 -163 0
-84 -175 0
-163 -175 0
84 163 175 0
c gate 176 -164 -175 0
-164 -176 0
-175 -176 0
164 175 176 0
c gate 177 174 -176 0
174 -177 0
-176 -177 0
-174 176 177 0
c gate 178 -153 -177 0
-153 -178 0
-177 -178 0
153 177 178 0
c gate 179 -174 176 0
-174 -179 0
176 -179 0
174 -176 179 0
c gate 180 -177 -179 0
-177 -180 0
-179 -180 0
177 179 180 0
c gate 181 -175 -180 0
-175 -181 0
-180 -181 0
175 180 181 0
c gate 182 -178 -181 0
-178 -182 0
-181 -182 0
178 181 182 0
c gate 183 165 -172 0
165 -183 0
-172 -183 0
-165 172 183 0
c gate 184 -97 -165 0
-97 -184 0
-165 -184 0
97 165 184 0
c gate 185 -82 -172 0
-82 -185 0
-172 -185 0
82 172 185 0
c gate 186 97 -185 0
97 -186 0
-185 -186 0
-97 185 186 0
c gate 187 -184 -186 0
-184 -187 0
-186 -187 0
184 186 187 0
c gate 188 -183 187 0
-183 -188 0
187 -188 0
183 -187 188 0
c gate 189 -182 -188 0
-182 -189 0
-188 -189 0
182 188 189 0
c gate 190 -170 -189 0
-170 -190 0
-189 -190 0
170 189 190 0
c gate 191 170 189 0
170 -191 0
189 -191 0
-170 -189 191 0
c gate 192 -95 -186 0
-95 -192 0
-186 -192 0
95 186 192 0
c gate 193 87 -192 0
87 -193 0
-192 -193 0
-87 192 193 0
c gate 194 -87 192 0
-87 -194 0
192 -194 0
87 -192 194 0
c gate 195 -193 -194 0
-193 -195 0
-194 -195 0
193 194 195 0
c gate 196 -191 195 0
-191 -196 0
195 -196 0
191 -195 196 0
c gate 197 -190 -196 0
-190 -197 0
-196 -197 0
190 196 197 0
c gate 198 -161 197 0
-161 -198 0
197 -198 0
161 -197 198 0
c gate 199 -155 -198 0
-155 -199 0
-198 -199 0
155 198 199 0
c gate 200 167 193 0
167 -200 0
193 -200 0
-167 -193 200 0
c gate 201 -66 -200 0
-66 -201 0
-200 -201 0
66 200 201 0
c gate 202 199 201 0
199 -202 0
201 -202 0
-199 -201 202 0
c gate 203 44 66 0
44 -203 0
66 -203 0
-44 -66 203 0
c gate 204 -66 -85 0
-66 -204 0
-85 -204 0
66 85 204 0
c gate 205 -193 204 0
-193 -205 0
204 -205 0
193 -204 205 0
c gate 206 168 205 0
168 -206 0
205 -206 0
-168 -205 206 0
c gate 207 -203 -206 0
-203 -207 0
-206 -207 0
203 206 207 0
c gate 208 -202 207 0
-202 -208 0
207 -208 0
202 -207 208 0
c gate 209 39 45 0
39 -209 0
45 -209 0
-39 -45 209 0
c gate 210 68 209 0
68 -210 0
209 -210 0
-68 -209 210 0
c gate 211 208 -210 0
208 -211 0
-210 -211 0
-208 210 211 0
c gate 212 -69 -211 0
-69 -212 0
-211 -212 0
69 211 212 0
c gate 213 -34 -35 0
-34 -213 0
-35 -213 0
34 35 213 0
c gate 214 69 -213 0
69 -214 0
-213 -214 0
-69 213 214 0
c gate 215 -212 -214 0
-212 -215 0
-214 -215 0
212 214 215 0
c gate 216 -114 215 0
-114 -216 0
215 -216 0
114 -215 216 0
c gate 217 -113 -216 0
-113 -217 0
-216 -217 0
113 216 217 0
c gate 218 -108 -217 0
-108 -218 0
-217 -218 0
108 217 218 0
c gate 219 77 107 0
77 -219 0
107 -219 0
-77 -107 219 0
c gate 220 -81 -219 0
-81 -220 0
-219 -220 0
81 219 220 0
c gate 221 -218 220 0
-218 -221 0
220 -221 0
218 -220 221 0
c gate 222 -101 -221 0
-101 -222 0
-221 -222 0
101 221 222 0
c gate 223 2 -222 0
2 -223 0
-222 -223 0
-2 222 223 0
c gate 224 -46 118 0
-46 -224 0
118 -224 0
46 -118 224 0
c gate 225 -18 222 0
-18 -225 0
222 -225 0
18 -222 225 0
c gate 226 224 -225 0
224 -226 0
-225 -226 0
-224 225 226 0
c gate 227 -223 226 0
-223 -227 0
226 -227 0
223 -226 227 0
c PO
227 0
